c Random generated cnf formula, satisfiable: false
p cnf 10 50
1 7 3 0
-5 3 1 0
5 2 -4 0
3 -1 -9 0
-3 -1 5 0
-1 10 -3 0
-2 3 8 0
-6 9 -7 0
5 9 -1 0
2 9 -5 0
6 -9 -2 0
5 2 -4 0
7 10 1 0
5 9 -1 0
8 -7 -3 0
10 5 3 0
4 2 3 0
-5 -2 9 0
3 -9 -2 0
4 -2 -6 0
-6 4 -10 0
-7 6 -4 0
9 -1 -5 0
4 -2 6 0
-3 8 4 0
4 -5 3 0
7 -10 -6 0
8 -7 -1 0
-2 -10 -1 0
-2 1 -4 0
-10 8 -9 0
5 4 -2 0
-8 -5 -9 0
4 1 7 0
8 -4 -3 0
10 -9 -4 0
-8 -7 9 0
-1 4 3 0
4 10 -6 0
-6 2 -4 0
-10 -2 -6 0
5 -6 1 0
6 -4 1 0
10 -6 5 0
8 1 9 0
-3 -7 6 0
8 9 2 0
6 5 -9 0
4 -5 -1 0
2 6 -3 0
